c Result of efficient AIG-to-CNF conversion using package CNF
p cnf 281 896
2 3 7 8 -11 0
-2 -8 0
-2 11 0
-2 -3 0
-2 -7 0
-3 255 4 5 6 0
3 -255 0
3 -6 0
3 -5 0
3 -4 0
-4 256 257 258 259 0
4 -259 0
4 -258 0
4 -256 0
4 -257 0
-5 264 265 266 0
5 -264 0
5 -266 0
5 -265 0
-6 260 261 262 263 0
6 -263 0
6 -262 0
6 -260 0
6 -261 0
-7 270 271 0
7 -270 0
7 -271 0
-8 275 276 9 10 0
8 -275 0
8 -10 0
8 -9 0
8 -276 0
-9 267 268 269 0
9 -267 0
9 -269 0
9 -268 0
-10 272 273 274 0
10 -272 0
10 -274 0
10 -273 0
-11 12 173 196 207 0
11 -207 0
11 -12 0
11 -196 0
11 -173 0
-12 15 159 0
-12 -13 15 0
-12 -228 15 0
12 -15 0
12 228 13 -159 0
-13 252 253 254 14 0
13 -14 0
13 -254 0
13 -252 0
13 -253 0
-14 249 250 251 0
14 -249 0
14 -251 0
14 -250 0
15 227 13 -16 0
-15 16 0
-15 -13 0
-15 -227 0
16 277 -17 0
16 -277 278 -138 0
-16 -277 -278 0
-16 277 17 0
-16 -277 138 0
17 278 -18 0
17 -278 -98 0
-17 -278 98 0
-17 278 18 0
18 279 -19 0
18 -279 -69 0
-18 -279 69 0
-18 279 19 0
19 280 -20 0
19 -280 -46 0
-19 -280 46 0
-19 280 20 0
20 -276 21 -40 0
20 276 21 -25 0
-20 -21 0
-20 -276 40 0
-20 276 25 0
-21 5 9 22 23 0
21 -23 0
21 -5 0
21 -22 0
21 -9 0
-22 270 271 275 10 0
22 -10 0
22 -275 0
22 -270 0
22 -271 0
-23 258 259 6 24 0
23 -258 0
23 -24 0
23 -6 0
23 -259 0
-24 255 256 257 13 0
24 -13 0
24 -257 0
24 -255 0
24 -256 0
-25 277 33 0
-25 -277 26 0
25 -277 -26 0
25 277 -33 0
26 278 -27 0
26 -278 -30 0
-26 -278 30 0
-26 278 27 0
27 279 -28 0
27 -279 -29 0
-27 -279 29 0
-27 279 28 0
28 -236 -280 0
28 -235 280 0
-28 235 280 0
-28 236 -280 0
29 -238 -280 0
29 -237 280 0
-29 237 280 0
-29 238 -280 0
30 279 -31 0
30 -279 -32 0
-30 -279 32 0
-30 279 31 0
31 -240 -280 0
31 -239 280 0
-31 239 280 0
-31 240 -280 0
32 -242 -280 0
32 -241 280 0
-32 241 280 0
-32 242 -280 0
33 278 -34 0
33 -278 -37 0
-33 -278 37 0
-33 278 34 0
34 279 -35 0
34 -279 -36 0
-34 -279 36 0
-34 279 35 0
35 -228 -280 0
35 -227 280 0
-35 227 280 0
-35 228 -280 0
36 -230 -280 0
36 -229 280 0
-36 229 280 0
-36 230 -280 0
37 279 -38 0
37 -279 -39 0
-37 -279 39 0
-37 279 38 0
38 -232 -280 0
38 -231 280 0
-38 231 280 0
-38 232 -280 0
39 -234 -280 0
39 -233 280 0
-39 233 280 0
-39 234 -280 0
40 277 -41 0
-40 -277 0
-40 41 0
41 278 -42 0
41 -278 -45 0
-41 -278 45 0
-41 278 42 0
42 279 -43 0
42 -279 -44 0
-42 -279 44 0
-42 279 43 0
43 -244 -280 0
43 -243 280 0
-43 243 280 0
-43 244 -280 0
44 -246 -280 0
44 -245 280 0
-44 245 280 0
-44 246 -280 0
45 -247 279 280 0
45 -248 279 -280 0
-45 -279 0
-45 248 -280 0
-45 247 280 0
46 -276 21 -62 0
46 276 21 -47 0
-46 -21 0
-46 -276 62 0
-46 276 47 0
-47 277 55 0
-47 -277 48 0
47 -277 -48 0
47 277 -55 0
48 278 -49 0
48 -278 -52 0
-48 -278 52 0
-48 278 49 0
49 279 -50 0
49 -279 -51 0
-49 -279 51 0
-49 279 50 0
50 -235 -280 0
50 -234 280 0
-50 234 280 0
-50 235 -280 0
51 -237 -280 0
51 -236 280 0
-51 236 280 0
-51 237 -280 0
52 279 -53 0
52 -279 -54 0
-52 -279 54 0
-52 279 53 0
53 -239 -280 0
53 -238 280 0
-53 238 280 0
-53 239 -280 0
54 -241 -280 0
54 -240 280 0
-54 240 280 0
-54 241 -280 0
55 278 -56 0
55 -278 -59 0
-55 -278 59 0
-55 278 56 0
56 279 -57 0
56 -279 -58 0
-56 -279 58 0
-56 279 57 0
57 -227 -280 0
57 -226 280 0
-57 226 280 0
-57 227 -280 0
58 -229 -280 0
58 -228 280 0
-58 228 280 0
-58 229 -280 0
59 279 -60 0
59 -279 -61 0
-59 -279 61 0
-59 279 60 0
60 -231 -280 0
60 -230 280 0
-60 230 280 0
-60 231 -280 0
61 -233 -280 0
61 -232 280 0
-61 232 280 0
-61 233 -280 0
62 277 -63 0
-62 -277 0
-62 63 0
63 278 -64 0
63 -278 -67 0
-63 -278 67 0
-63 278 64 0
64 279 -65 0
64 -279 -66 0
-64 -279 66 0
-64 279 65 0
65 -243 -280 0
65 -242 280 0
-65 242 280 0
-65 243 -280 0
66 -245 -280 0
66 -244 280 0
-66 244 280 0
-66 245 -280 0
67 279 -68 0
67 -248 -279 280 0
-67 279 68 0
-67 -279 -280 0
-67 248 -279 0
68 -247 -280 0
68 -246 280 0
-68 246 280 0
-68 247 -280 0
69 280 -70 0
69 -280 -84 0
-69 -280 84 0
-69 280 70 0
70 -276 21 -79 0
70 276 21 -71 0
-70 -21 0
-70 -276 79 0
-70 276 71 0
-71 277 75 0
-71 -277 72 0
71 -277 -72 0
71 277 -75 0
72 278 -73 0
72 -278 -74 0
-72 -278 74 0
-72 278 73 0
73 -279 -28 0
73 279 -39 0
-73 279 39 0
-73 -279 28 0
74 279 -29 0
74 -279 -31 0
-74 -279 31 0
-74 279 29 0
75 278 -76 0
75 -278 -78 0
-75 -278 78 0
-75 278 76 0
76 -279 -35 0
76 279 -77 0
-76 279 77 0
-76 -279 35 0
77 -226 -280 0
77 -225 280 0
-77 225 280 0
-77 226 -280 0
78 279 -36 0
78 -279 -38 0
-78 -279 38 0
-78 279 36 0
79 277 -80 0
-79 -277 0
-79 80 0
80 278 -81 0
80 -278 -82 0
-80 -278 82 0
-80 278 81 0
81 279 -32 0
81 -279 -43 0
-81 -279 43 0
-81 279 32 0
82 279 -44 0
82 -279 -83 0
-82 -279 83 0
-82 279 44 0
83 -248 -280 0
83 -247 280 0
-83 247 280 0
-83 248 -280 0
84 -276 21 -93 0
84 276 21 -85 0
-84 -21 0
-84 -276 93 0
-84 276 85 0
-85 277 86 0
-85 -277 90 0
85 -277 -90 0
85 277 -86 0
-86 278 88 0
-86 -278 87 0
86 -278 -87 0
86 278 -88 0
87 279 -58 0
87 -279 -60 0
-87 -279 60 0
-87 279 58 0
88 -279 -57 0
88 279 -89 0
-88 279 89 0
-88 -279 57 0
89 -225 -280 0
89 -224 280 0
-89 224 280 0
-89 225 -280 0
90 278 -91 0
90 -278 -92 0
-90 -278 92 0
-90 278 91 0
91 -279 -50 0
91 279 -61 0
-91 279 61 0
-91 -279 50 0
92 279 -51 0
92 -279 -53 0
-92 -279 53 0
-92 279 51 0
93 277 -94 0
93 -277 -97 0
-93 -277 97 0
-93 277 94 0
94 278 -95 0
94 -278 -96 0
-94 -278 96 0
-94 278 95 0
95 279 -54 0
95 -279 -65 0
-95 -279 65 0
-95 279 54 0
96 279 -66 0
96 -279 -68 0
-96 -279 68 0
-96 279 66 0
97 -248 278 279 280 0
-97 -280 0
-97 -279 0
-97 248 0
-97 -278 0
98 279 -99 0
98 -279 -118 0
-98 -279 118 0
-98 279 99 0
99 280 -100 0
99 -280 -109 0
-99 -280 109 0
-99 280 100 0
100 -276 21 -106 0
100 276 21 -101 0
-100 -21 0
-100 -276 106 0
-100 276 101 0
-101 277 102 0
-101 -277 105 0
101 -277 -105 0
101 277 -102 0
-102 278 103 0
-102 -278 34 0
102 -278 -34 0
102 278 -103 0
103 -279 -77 0
103 279 -104 0
-103 279 104 0
-103 -279 77 0
104 -224 -280 0
104 -223 280 0
-104 223 280 0
-104 224 -280 0
105 -278 -27 0
105 278 -37 0
-105 278 37 0
-105 -278 27 0
106 277 -107 0
106 -277 -108 0
-106 -277 108 0
-106 277 107 0
107 278 -30 0
107 -278 -42 0
-107 -278 42 0
-107 278 30 0
108 278 -45 0
-108 -278 0
-108 45 0
109 -276 21 -115 0
109 276 21 -110 0
-109 -21 0
-109 -276 115 0
-109 276 110 0
-110 277 111 0
-110 -277 114 0
110 -277 -114 0
110 277 -111 0
-111 278 112 0
-111 -278 56 0
111 -278 -56 0
111 278 -112 0
112 -279 -89 0
112 279 -113 0
-112 279 113 0
-112 -279 89 0
113 -223 -280 0
113 -222 280 0
-113 222 280 0
-113 223 -280 0
114 -278 -49 0
114 278 -59 0
-114 278 59 0
-114 -278 49 0
115 277 -116 0
115 -277 -117 0
-115 -277 117 0
-115 277 116 0
116 278 -52 0
116 -278 -64 0
-116 -278 64 0
-116 278 52 0
117 278 -67 0
-117 -278 0
-117 67 0
118 280 -119 0
118 -280 -128 0
-118 -280 128 0
-118 280 119 0
119 -276 21 -125 0
119 276 21 -120 0
-119 -21 0
-119 -276 125 0
-119 276 120 0
-120 277 121 0
-120 -277 124 0
120 -277 -124 0
120 277 -121 0
-121 278 122 0
-121 -278 76 0
121 -278 -76 0
121 278 -122 0
122 -279 -104 0
122 279 -123 0
-122 279 123 0
-122 -279 104 0
123 -222 -280 0
123 -221 280 0
-123 221 280 0
-123 222 -280 0
124 -278 -73 0
124 278 -78 0
-124 278 78 0
-124 -278 73 0
125 277 -126 0
125 -277 -127 0
-125 -277 127 0
-125 277 126 0
126 278 -74 0
126 -278 -81 0
-126 -278 81 0
-126 278 74 0
127 278 -82 0
-127 -278 0
-127 82 0
128 -276 21 -134 0
128 276 21 -129 0
-128 -21 0
-128 -276 134 0
-128 276 129 0
129 277 -130 0
129 -277 -133 0
-129 -277 133 0
-129 277 130 0
130 -278 -88 0
130 278 -131 0
-130 278 131 0
-130 -278 88 0
131 -279 -113 0
131 279 -132 0
-131 279 132 0
-131 -279 113 0
132 -221 -280 0
132 -220 280 0
-132 220 280 0
-132 221 -280 0
133 278 -87 0
133 -278 -91 0
-133 -278 91 0
-133 278 87 0
134 277 -135 0
134 -277 -136 0
-134 -277 136 0
-134 277 135 0
135 278 -92 0
135 -278 -95 0
-135 -278 95 0
-135 278 92 0
136 278 -96 0
136 -278 -137 0
-136 -278 137 0
-136 278 96 0
137 -248 279 280 0
-137 248 0
-137 -280 0
-137 -279 0
138 279 -139 0
138 -279 -152 0
-138 -279 152 0
-138 279 139 0
139 280 -140 0
139 -280 -146 0
-139 -280 146 0
-139 280 140 0
140 276 21 -142 0
140 -276 21 -141 0
-140 -21 0
-140 -276 141 0
-140 276 142 0
141 277 -26 0
141 -277 -41 0
-141 -277 41 0
-141 277 26 0
142 -277 -33 0
142 277 -143 0
-142 277 143 0
-142 -277 33 0
143 -278 -103 0
143 278 -144 0
-143 278 144 0
-143 -278 103 0
144 -279 -123 0
144 279 -145 0
-144 279 145 0
-144 -279 123 0
145 -220 -280 0
145 -219 280 0
-145 219 280 0
-145 220 -280 0
146 -276 21 -151 0
146 276 21 -147 0
-146 -21 0
-146 -276 151 0
-146 276 147 0
-147 -277 55 0
-147 277 148 0
147 -277 -55 0
147 277 -148 0
-148 -278 112 0
-148 278 149 0
148 -278 -112 0
148 278 -149 0
-149 279 150 0
-149 -279 132 0
149 -279 -132 0
149 279 -150 0
150 -219 -280 0
150 -218 280 0
-150 218 280 0
-150 219 -280 0
151 277 -48 0
151 -277 -63 0
-151 -277 63 0
-151 277 48 0
152 280 -153 0
-152 -280 0
-152 153 0
153 -276 21 -158 0
153 276 21 -154 0
-153 -21 0
-153 -276 158 0
-153 276 154 0
-154 -277 75 0
-154 277 155 0
154 -277 -75 0
154 277 -155 0
-155 -278 122 0
-155 278 156 0
155 -278 -122 0
155 278 -156 0
-156 279 157 0
-156 -279 145 0
156 -279 -145 0
156 279 -157 0
157 -218 -280 0
157 -217 280 0
-157 217 280 0
-157 218 -280 0
158 277 -72 0
158 -277 -80 0
-158 -277 80 0
-158 277 72 0
159 277 -160 0
159 -277 278 -170 0
-159 -277 -278 0
-159 277 160 0
-159 -277 170 0
160 278 -161 0
160 -278 -167 0
-160 -278 167 0
-160 278 161 0
161 279 -162 0
161 -279 -166 0
-161 -279 166 0
-161 279 162 0
162 -280 -20 0
162 280 -163 0
-162 280 163 0
-162 -280 20 0
163 -276 21 -165 0
163 276 21 -164 0
-163 -21 0
-163 -276 165 0
-163 276 164 0
-164 -277 135 0
-164 277 133 0
164 277 -133 0
164 -277 -135 0
165 277 -136 0
-165 -277 0
-165 136 0
166 280 -46 0
166 -280 -70 0
-166 -280 70 0
-166 280 46 0
167 279 -168 0
167 -279 -169 0
-167 -279 169 0
-167 279 168 0
168 280 -84 0
168 -280 -100 0
-168 -280 100 0
-168 280 84 0
169 280 -109 0
169 -280 -119 0
-169 -280 119 0
-169 280 109 0
170 279 -171 0
170 -279 -172 0
-170 -279 172 0
-170 279 171 0
171 280 -128 0
171 -280 -140 0
-171 -280 140 0
-171 280 128 0
172 280 -146 0
172 -280 -153 0
-172 -280 153 0
-172 280 146 0
-173 174 185 0
-173 -13 174 0
-173 -230 174 0
173 -174 0
173 230 13 -185 0
174 229 13 -175 182 0
-174 -13 0
-174 -182 0
-174 -229 0
-174 175 0
-175 277 -278 181 0
-175 277 278 176 0
175 -277 0
175 -278 -181 0
175 278 -176 0
176 -279 -19 0
176 279 -177 0
-176 279 177 0
-176 -279 19 0
177 -280 -163 0
177 280 -178 0
-177 280 178 0
-177 -280 163 0
178 -276 21 -180 0
178 276 21 -179 0
-178 -21 0
-178 -276 180 0
-178 276 179 0
-179 -277 126 0
-179 277 124 0
179 277 -124 0
179 -277 -126 0
180 277 -127 0
-180 -277 0
-180 127 0
181 279 -69 0
181 -279 -99 0
-181 -279 99 0
-181 279 69 0
182 -277 -278 184 0
182 -277 278 183 0
-182 277 0
-182 -278 -184 0
-182 278 -183 0
183 279 -118 0
183 -279 -139 0
-183 -279 139 0
-183 279 118 0
184 279 -152 0
-184 -279 0
-184 152 0
185 277 -186 0
185 -277 -193 0
-185 -277 193 0
-185 277 186 0
186 278 -187 0
186 -278 -192 0
-186 -278 192 0
-186 278 187 0
187 -279 -162 0
187 279 -188 0
-187 279 188 0
-187 -279 162 0
188 -280 -178 0
188 280 -189 0
-188 280 189 0
-188 -280 178 0
189 -276 21 -191 0
189 276 21 -190 0
-189 -21 0
-189 -276 191 0
-189 276 190 0
-190 -277 116 0
-190 277 114 0
190 277 -114 0
190 -277 -116 0
191 277 -117 0
-191 -277 0
-191 117 0
192 279 -166 0
192 -279 -168 0
-192 -279 168 0
-192 279 166 0
193 278 -194 0
193 -278 -195 0
-193 -278 195 0
-193 278 194 0
194 279 -169 0
194 -279 -171 0
-194 -279 171 0
-194 279 169 0
195 279 -172 0
-195 -279 0
-195 172 0
-196 -13 199 0
-196 -226 199 0
-196 197 199 0
196 -199 0
196 226 13 -197 0
197 277 -198 0
197 -277 278 -195 0
-197 -277 -278 0
-197 277 198 0
-197 -277 195 0
198 278 -192 0
198 -278 -194 0
-198 -278 194 0
-198 278 192 0
199 231 13 -200 206 0
-199 -13 0
-199 -206 0
-199 -231 0
-199 200 0
-200 277 -278 18 0
-200 277 278 201 0
200 -277 0
200 -278 -18 0
200 278 -201 0
201 -279 -177 0
201 279 -202 0
-201 279 202 0
-201 -279 177 0
202 -280 -189 0
202 280 -203 0
-202 280 203 0
-202 -280 189 0
203 -276 21 -205 0
203 276 21 -204 0
-203 -21 0
-203 -276 205 0
-203 276 204 0
-204 -277 107 0
-204 277 105 0
204 277 -105 0
204 -277 -107 0
205 277 -108 0
-205 -277 0
-205 108 0
206 -277 -278 138 0
206 -277 278 98 0
-206 277 0
-206 -278 -138 0
-206 278 -98 0
-207 -13 210 0
-207 -225 210 0
-207 208 210 0
207 -210 0
207 225 13 -208 0
208 277 -209 0
208 -277 278 -184 0
-208 -277 -278 0
-208 277 209 0
-208 -277 184 0
209 278 -181 0
209 -278 -183 0
-209 -278 183 0
-209 278 181 0
210 232 13 -211 216 0
-210 -13 0
-210 -216 0
-210 -232 0
-210 211 0
-211 277 -278 161 0
-211 277 278 212 0
211 -277 0
211 -278 -161 0
211 278 -212 0
212 -279 -188 0
212 279 -213 0
-212 279 213 0
-212 -279 188 0
213 -280 -203 0
213 280 21 -214 0
-213 -280 203 0
-213 280 214 0
-213 280 -21 0
-214 -276 -277 0
-214 276 215 0
-214 -276 97 0
214 276 -215 0
214 -276 277 -97 0
-215 -277 94 0
-215 277 90 0
215 277 -90 0
215 -277 -94 0
216 -277 -278 170 0
216 -277 278 167 0
-216 277 0
-216 -278 -170 0
-216 278 -167 0
-281 0
2 0

